NAME: perso9
TYPE: TSP
COMMENT: 9 locations
DIMENSION: 9
EDGE_WEIGHT_TYPE: EUC_2D
NODE_COORD_SECTION
1 565.0 275.0
2 25.0 185.0
3 345.0 750.0
4 845.0 685.0
5 345.0 655.0
6 680.0 660.0
7 25.0 230.0
8 525.0 1000.0
9 580.0 775.0
EOF

